; benchmark generated from python API
(set-info :status unknown)
(declare-datatypes ((RealState 0)) (((RMk1 (rval1 Real)) (RMk2 (rval2 Real)))))
 (declare-fun x1 () Real)
(assert
 (let (($x1084 (forall ((?y1 Real) )(exists ((?y3_st RealState) (val!160 Real) )(let (($x2281 (exists ((?y4 Real) )(! (let (($x6159 (forall ((?y5 Real) )(! (let ((?x280 (- 18.0)))
 (= (+ (+ (* 1.0 ?y5) (* 60.0 ?y1)) (* 11.0 x1)) ?x280)) :qid k!20))
 ))
 (let (($x6487 (exists ((?y5 Real) )(! (let ((?x10228 (* (- 93.0) x1)))
 (> (+ (+ (* (- 56.0) ?y4) (* (- 8.0) (rval2 ?y3_st))) ?x10228) 32.0)) :qid k!20))
 ))
 (let (($x7625 (>= (+ (* 80.0 ?y4) (* 80.0 x1)) 67.0)))
 (let (($x9278 (forall ((?y5 Real) )(! (<= (+ (* (- 53.0) (rval2 ?y3_st)) (* 85.0 ?y1)) 0.0) :qid k!20))
 ))
 (let (($x2502 (exists ((?y6 Real) )(! (let (($x10707 (not (= (+ (* (- 28.0) ?y4) (* (- 44.0) x1)) (- 60.0)))))
 (let ((?x10050 (* (- 73.0) x1)))
 (let ((?x12129 (+ (+ (* (- 74.0) ?y6) (* (- 39.0) (rval2 ?y3_st))) (* (- 50.0) ?y1))))
 (or (>= (+ ?x12129 ?x10050) 67.0) $x10707)))) :qid k!20))
 ))
 (or $x2502 (or (and $x9278 $x7625) (and $x6487 $x6159)))))))) :qid k!20))
 ))
 (let (($x966 (exists ((?y4 Real) )(! (forall ((?y5 Real) )(! (exists ((?y6 Real) )(! (let ((?x13203 (+ (* (- 27.0) ?y6) (* (- 86.0) ?y4))))
 (not (= (+ ?x13203 (* (- 60.0) ?y1)) 69.0))) :qid k!20))
  :qid k!20))
  :qid k!20))
 ))
 (let (($x13062 (exists ((?y4 Real) )(! (let ((?x5458 (* 57.0 x1)))
 (let ((?x9713 (+ (+ (+ (* 61.0 ?y4) (* (- 70.0) (rval2 ?y3_st))) (* 68.0 ?y1)) ?x5458)))
 (let (($x7031 (forall ((?y5 Real) )(! (let ((?x7145 (- 31.0)))
 (<= (+ (* (- 3.0) ?y1) (* 22.0 x1)) ?x7145)) :qid k!20))
 ))
 (and $x7031 (<= ?x9713 0.0))))) :qid k!20))
 ))
 (let (($x3188 (not (= ?y3_st (RMk1 val!160)))))
 (and $x3188 (and (or $x13062 $x966) $x2281)))))))
 )
 ))
 (let (($x2497 (forall ((?y2 Real) )(exists ((?y3_st RealState) (val!159 Real) )(forall ((?y4 Real) )(let (($x3109 (forall ((?y5 Real) )(! (let (($x7064 (forall ((?y6 Real) )(! (let ((?x11771 (* 10.0 x1)))
 (let ((?x12358 (+ (* (- 76.0) ?y5) (* (- 1.0) ?y4))))
 (> (+ (+ ?x12358 (* (- 1.0) (rval2 ?y3_st))) ?x11771) 59.0))) :qid k!20))
 ))
 (let ((?x13071 (- 86.0)))
 (let ((?x995 (* 88.0 x1)))
 (let ((?x6419 (+ (+ (+ (* (- 45.0) ?y5) (* 40.0 ?y4)) (* (- 17.0) ?y2)) ?x995)))
 (let ((?x8124 (- 44.0)))
 (let ((?x6625 (* (- 19.0) x1)))
 (let ((?x11564 (* 49.0 x1)))
 (let ((?x1068 (+ (+ (+ (* 85.0 ?y5) (* 16.0 ?y4)) (* 61.0 (rval2 ?y3_st))) (* (- 65.0) ?y2))))
 (let (($x10565 (or (>= (+ ?x1068 ?x11564) ?x13071) (< (+ (+ (* (- 28.0) (rval2 ?y3_st)) (* 33.0 ?y2)) ?x6625) ?x8124))))
 (let ((?x5960 (- 74.0)))
 (let ((?x7924 (* 1.0 x1)))
 (let ((?x12706 (* 92.0 ?y5)))
 (let ((?x10638 (+ ?x12706 (* (- 7.0) ?y4))))
 (let ((?x5217 (+ (+ (+ ?x10638 (* (- 26.0) (rval2 ?y3_st))) (* (- 68.0) ?y2)) ?x7924)))
 (let ((?x7590 (- 43.0)))
 (let ((?x5912 (* (- 5.0) x1)))
 (let ((?x5781 (+ (* ?x8124 ?y5) (* (- 72.0) ?y4))))
 (let ((?x6957 (+ (+ (+ ?x5781 (* (- 15.0) (rval2 ?y3_st))) (* (- 9.0) ?y2)) ?x5912)))
 (or (or (and (> ?x6957 ?x7590) (< ?x5217 ?x5960)) $x10565) (and (>= ?x6419 ?x13071) $x7064)))))))))))))))))))) :qid k!20))
 ))
 (let (($x6875 (exists ((?y5 Real) )(! (forall ((?y6 Real) )(! (let ((?x7365 (- 42.0)))
 (let ((?x10400 (* 70.0 x1)))
 (let ((?x6004 (+ (+ (* (- 56.0) ?y6) (* 36.0 (rval2 ?y3_st))) (* (- 18.0) ?y2))))
 (let ((?x10880 (- 85.0)))
 (let ((?x3537 (* 77.0 x1)))
 (let ((?x244 (+ (+ (+ (* 5.0 ?y6) (* (- 88.0) (rval2 ?y3_st))) (* 65.0 ?y2)) ?x3537)))
 (and (not (= ?x244 ?x10880)) (= (+ ?x6004 ?x10400) ?x7365)))))))) :qid k!20))
  :qid k!20))
 ))
 (let (($x9996 (exists ((?y6 Real) )(! (let ((?x8124 (- 44.0)))
 (let ((?x3145 (* (- 94.0) x1)))
 (let ((?x13049 (+ (+ (* (- 51.0) ?y4) (* (- 70.0) (rval2 ?y3_st))) (* (- 97.0) ?y2))))
 (let ((?x3210 (- 47.0)))
 (let ((?x11892 (* 75.0 x1)))
 (let ((?x11095 (+ (+ (+ (* 18.0 ?y4) (* 22.0 (rval2 ?y3_st))) (* 83.0 ?y2)) ?x11892)))
 (or (>= ?x11095 ?x3210) (>= (+ ?x13049 ?x3145) ?x8124)))))))) :qid k!20))
 ))
 (let (($x7371 (not (= ?y3_st (RMk1 val!159)))))
 (and $x7371 (or (and $x9996 $x6875) $x3109)))))))
 )
 )
 ))
 (or $x2497 $x1084))))
(check-sat)
